unsat
(:added-eqs                       1611018
 :arith-eq-adapter                3376
 :arith-bound-propagations-lp     2762
 :arith-branch                    7
 :arith-conflicts                 5811
 :arith-cube-calls                5
 :arith-diseq                     30243
 :arith-fixed-eqs                 94200
 :arith-gcd-calls                 166
 :arith-gomory-cuts               6
 :arith-grobner-calls             513
 :arith-grobner-conflicts         226
 :arith-horner-calls              109
 :arith-horner-conflicts          18
 :arith-horner-cross-nested-forms 41904
 :arith-lower                     418499
 :arith-make-feasible             87370
 :arith-max-columns               7009
 :arith-max-rows                  2699
 :arith-nla-add-bounds            268
 :arith-nla-lemmas                2311
 :arith-nla-propagate-bounds      2636
 :arith-nla-propagate-eq          128656
 :arith-nra-calls                 18
 :arith-offset-eqs                623886
 :arith-patches                   166
 :arith-patches-success           148
 :arith-upper                     639248
 :binary-propagations             1973677
 :cnf-encoding-aux-vars           82
 :conflicts                       2277
 :decisions                       1409475
 :del-clause                      4541
 :elim-unconstrained              1416
 :final-checks                    1258
 :max-memory                      350.03
 :memory                          96.99
 :minimized-lits                  1658
 :mk-bool-var                     21932
 :mk-clause                       10200
 :mk-clause-binary                97171
 :nlsat-conflicts                 42984
 :nlsat-decisions                 158709
 :nlsat-propagations              718405
 :nlsat-stages                    85736
 :num-allocs                      87562720905.00
 :num-checks                      2
 :propagations                    2281505
 :restarts                        18
 :rlimit-count                    48131549
 :sat-backjumps                   4350
 :sat-backtracks                  55
 :sat-conflicts                   4406
 :sat-decisions                   62099
 :sat-del-clause                  792951
 :sat-elim-bool-vars-res          120601
 :sat-elim-clauses                151996
 :sat-elim-literals               70178
 :sat-minimized-lits              23066
 :sat-mk-clause-2ary              386034
 :sat-mk-clause-3ary              183112
 :sat-mk-clause-nary              924762
 :sat-mk-var                      233869
 :sat-probing-assigned            145
 :sat-propagations-2ary           5606976
 :sat-propagations-nary           7004338
 :sat-restarts                    357
 :sat-scc-elim-binary             3226
 :sat-scc-elim-vars               1589
 :sat-subs-resolution             6382
 :sat-subs-resolution-dyn         1028
 :sat-subsumed                    112221
 :sat-units                       44935
 :solve-eqs-elim-vars             696
 :solve-eqs-steps                 3684
 :time                            51.49
 :total-time                      51.54)
